NAME : hexagon_2d
COMMENT : simple instance for testing in the shape of an hexagon
TYPE : TSP
DIMENSION: 12
EDGE_WEIGHT_TYPE : EUC_2D
NODE_COORD_SECTION
  1 10 30
  2 5 25
  3 20 0
  4 15 25
  5 20 10
  6 5 -5
  7 20 20
  8 15 -5
  9 0 0
 10 0 20
 11 10 -10
 12 0 10
EOF